4 52 23 1 55 51 57 80 85 31 60 92 6 27 61 18 24 13 70 88 95 14 91 33 84 41 83 20 26 29 76 53 15 34 89 96 75 25 50 82 87 71 77 66 5 21 11 64 98 90 2 39 54 30 65 99 81 42 62 46 35 19 43 12 47 28 56 58 44 49 59 97 73 79 45 3 17 72 36 40 22 10 32 8 9 93 7 78 68 74 67 48 38 86 16 0 69 94 37 63 

